<instance format="XCSP3" type="CSP">
  <variables>
    <var id="x0"> 4 5 9 11 14 17 </var>
    <var id="x1"> 4 9 11 15..17 </var>
    <var id="x2"> 4 14..16 </var>
    <var id="x3"> 5 9 15 16 </var>
    <var id="x4"> 5 14 15 </var>
    <var id="x5"> 4 11 16 17 </var>
    <var id="x6"> 5 9 15..17 </var>
    <var id="x7"> 4 11 14..17 </var>
    <var id="x8"> 2 4 6 11 14 16 </var>
    <var id="x9"> 1 2 4 6 11 16 </var>
    <var id="x10"> 2 4 11 </var>
    <var id="x11"> 1 2 16 </var>
    <var id="x12"> 2 6 16 </var>
    <var id="x13"> 6 8 14 </var>
    <var id="x14"> 1 4 6 8 11 16 </var>
    <var id="x15"> 1 2 11 16 </var>
    <var id="x16"> 1 4 16 </var>
    <var id="x17"> 1 4 10 15 16 </var>
    <var id="x18"> 1 10 15 16 </var>
    <var id="x19"> 0 10 15 </var>
    <var id="x20"> 1 4 10 11 13 </var>
    <var id="x21"> 4 10 11 15 16 </var>
    <var id="x22"> 0 4 11 15 16 </var>
    <var id="x23"> 0 4 10 11 15 </var>
    <var id="x24"> 4 5 16 </var>
    <var id="x25"> 4 6 11 16 17 </var>
    <var id="x26"> 2 4 10 16 </var>
    <var id="x27"> 2 4 10 11 </var>
    <var as="x25" id="x28"/>
    <var id="x29"> 2 5 16 17 </var>
    <var id="x30"> 2 4 11 16 17 </var>
    <var id="x31"> 2 5 10 11 16 </var>
    <var id="x32"> 2 11 16 </var>
    <var id="x33"> 2 4 6 11 17 </var>
    <var id="x34"> 2 4 6 11 16 </var>
    <var id="x35"> 4 8 16 </var>
    <var id="x36"> 2 6 16 17 </var>
    <var id="x37"> 4 10 11 </var>
    <var id="x38"> 4 8 10 11 16 </var>
    <var id="x39"> 2 10 11 16 </var>
    <var id="x40"> 6 11 14 </var>
    <var id="x41"> 6 11 14 16 </var>
    <var id="x42"> 1 6 11 16 </var>
    <var id="x43"> 1 16 </var>
    <var as="x18" id="x44"/>
    <var id="x45"> 6 15 16 </var>
    <var id="x46"> 1 10 11 </var>
    <var id="x47"> 0 11 14..16 </var>
    <var id="x48"> 1 3 11 </var>
    <var id="x49"> 1 3 8 </var>
    <var id="x50"> 1 8 15 </var>
    <var id="x51"> 1 3 15 </var>
    <var id="x52"> 0 7 8 15 </var>
    <var id="x53"> 7 8 15 </var>
    <var id="x54"> 0 1 11 15 </var>
    <var id="x55"> 2 4 11 17 </var>
    <var id="x56"> 2 4 7 11 </var>
    <var id="x57"> 1 2 4 11 17 </var>
    <var id="x58"> 4 11 15 17 </var>
    <var id="x59"> 7 10 15 </var>
    <var id="x60"> 1 4 11 17 </var>
    <var id="x61"> 4 7 10 11 15 </var>
    <var id="x62"> 2 4 7 10 11 15 </var>
    <var id="x63"> 0 2 12 15 </var>
    <var id="x64"> 0 2..4 15 </var>
    <var id="x65"> 2 3 9 15 </var>
    <var id="x66"> 4 7 9 15 </var>
    <var id="x67"> 2 7 9 15 </var>
    <var id="x68"> 0 2 4 15 </var>
    <var id="x69"> 0 2 4 7 15 </var>
    <var id="x70"> 0 2 15 </var>
    <var id="x71"> 4 7 14 16 </var>
    <var id="x72"> 3 4 16 17 </var>
    <var id="x73"> 4 15..17 </var>
    <var id="x74"> 4 7 15 16 </var>
    <var id="x75"> 5 7 15..17 </var>
    <var id="x76"> 4 14..17 </var>
    <var id="x77"> 4 7 15 </var>
    <var id="x78"> 5 15 16 </var>
    <var id="x79"> 1 2 11 </var>
    <var id="x80"> 2 4 11 </var>
    <var id="x81"> 4 9 11 </var>
    <var id="x82"> 2..4 11 </var>
    <var id="x83"> 1..3 9 </var>
    <var id="x84"> 1 3 4 9 11 </var>
    <var id="x85"> 2 4 8 11 </var>
    <var id="x86"> 2 4 9 17 </var>
    <var id="x87"> 2 4 13 16 </var>
    <var id="x88"> 4 9 16 </var>
    <var id="x89"> 4 9 12 15..17 </var>
    <var id="x90"> 2 9 15 16 </var>
    <var id="x91"> 2 9 15..17 </var>
    <var id="x92"> 4 12 16 17 </var>
    <var id="x93"> 4 9 15 16 </var>
    <var id="x94"> 2 11 15 16 </var>
    <var id="x95"> 2 11 16 </var>
    <var id="x96"> 5 8 16 </var>
    <var id="x97"> 2 8 14..16 </var>
    <var id="x98"> 5 8 14 15 </var>
    <var id="x99"> 2 11 14..16 </var>
    <var id="x100"> 2 5 11 15 16 </var>
    <var id="x101"> 2 6 9 </var>
    <var id="x102"> 1..3 6 16 </var>
    <var id="x103"> 1 2 8 10 16 </var>
    <var id="x104"> 2 3 10 </var>
    <var id="x105"> 1..3 9 10 16 </var>
    <var id="x106"> 6 8 10 </var>
    <var id="x107"> 1 6 8 16 </var>
    <var id="x108"> 2 8 10 </var>
    <var id="x109"> 2 12 15 </var>
    <var id="x110"> 2 4..6 17 </var>
    <var id="x111"> 2 4 6 17 </var>
    <var id="x112"> 2 4 10 15 </var>
    <var id="x113"> 2 5 6 15 17 </var>
    <var id="x114"> 4 10 12 </var>
    <var id="x115"> 2 5 15 17 </var>
    <var id="x116"> 2 5 10 15 </var>
    <var id="x117"> 9 12 15 16 </var>
    <var id="x118"> 2 8 15 16 </var>
    <var id="x119"> 2 3 9 15 16 </var>
    <var id="x120"> 3 9 12 </var>
    <var id="x121"> 8 12 16 </var>
    <var id="x122"> 8 9 15 16 </var>
    <var id="x123"> 0 2 15 16 </var>
    <var id="x124"> 0 2 8 15 </var>
    <var id="x125"> 0 11 16 </var>
    <var id="x126"> 4..6 9 11 </var>
    <var id="x127"> 4 6 7 11 16 </var>
    <var id="x128"> 4 9 11 </var>
    <var id="x129"> 4 6 11 16 </var>
    <var id="x130"> 4 7 9 11 16 </var>
    <var id="x131"> 5 7 9 16 </var>
    <var id="x132"> 0 4 7 11 </var>
    <var id="x133"> 1 2 11 15 16 </var>
    <var id="x134"> 9 11 15 16 </var>
    <var id="x135"> 1 2 10 15 16 </var>
    <var id="x136"> 2 10 11 15 </var>
    <var id="x137"> 2 5 9 15 16 </var>
    <var id="x138"> 5 10 15 </var>
    <var id="x139"> 1 9..11 </var>
    <var as="x137" id="x140"/>
  </variables>
  <constraints>
    <group>
      <allDifferent> %... </allDifferent>
      <args> x0 x1 x2 x3 x4 x5 x6 x7 </args>
      <args> x8 x9 x10 x11 x12 x13 x14 x15 </args>
      <args> x16 x17 x18 x19 x20 x21 x22 x23 </args>
      <args> x24 x25 x26 x27 x28 x29 x30 x31 </args>
      <args> x32 x33 x34 x35 x36 x37 x38 x39 </args>
      <args> x40 x41 x42 x43 x44 x45 x46 x47 </args>
      <args> x48 x49 x50 x51 x52 x53 x54 </args>
      <args> x55 x56 x57 x58 x59 x60 x61 x62 </args>
      <args> x63 x64 x65 x66 x67 x68 x69 x70 </args>
      <args> x71 x72 x73 x74 x75 x76 x77 x78 </args>
      <args> x79 x80 x81 x82 x83 x84 x85 </args>
      <args> x86 x87 x88 x89 x90 x91 x92 x93 </args>
      <args> x94 x95 x96 x97 x98 x99 x100 </args>
      <args> x101 x102 x103 x104 x105 x106 x107 x108 </args>
      <args> x109 x110 x111 x112 x113 x114 x115 x116 </args>
      <args> x117 x118 x119 x120 x121 x122 x123 x124 </args>
      <args> x125 x126 x127 x128 x129 x130 x131 x132 </args>
      <args> x133 x134 x135 x136 x137 x138 x139 x140 </args>
      <args> x32 x63 x79 x94 x109 x125 x133 </args>
      <args> x0 x33 x40 x55 x86 x101 x110 x126 </args>
      <args> x8 x34 x41 x56 x71 x80 x87 x127 </args>
      <args> x9 x42 x48 x57 x72 x95 x102 x111 </args>
      <args> x16 x24 x35 x43 x49 x88 x96 </args>
      <args> x1 x25 x58 x73 x81 x89 x117 x134 </args>
      <args> x2 x17 x26 x50 x97 x103 x118 x135 </args>
      <args> x10 x27 x64 x82 x104 x112 x136 </args>
      <args> x3 x11 x18 x44 x51 x83 x90 x105 </args>
      <args> x12 x36 x45 x65 x91 x113 x119 x137 </args>
      <args> x4 x13 x19 x52 x59 x98 x106 x138 </args>
      <args> x20 x37 x46 x84 x114 x120 x128 x139 </args>
      <args> x5 x14 x28 x60 x92 x107 x121 x129 </args>
      <args> x21 x38 x61 x66 x74 x93 x122 x130 </args>
      <args> x6 x29 x53 x67 x75 x115 x131 x140 </args>
      <args> x7 x22 x30 x47 x68 x76 x99 x123 </args>
      <args> x23 x62 x69 x77 x85 x108 x124 x132 </args>
      <args> x15 x31 x39 x54 x70 x78 x100 x116 </args>
    </group>
  </constraints>
</instance>

